<number of tasks>
89

<cycle time>
97

<task times>
1 28
2 17
3 7
4 10
5 12
6 16
7 13
8 8
9 13
10 24
11 16
12 24
13 12
14 20
15 22
16 22
17 22
18 47
19 6
20 12
21 6
22 22
23 7
24 14
25 68
26 15
27 8
28 74
29 32
30 11
31 18
32 15
33 42
34 27
35 38
36 38
37 26
38 35
39 31
40 8
41 14
42 8
43 8
44 8
45 17
46 7
47 19
48 12
49 24
50 26
51 22
52 14
53 27
54 60
55 4
56 2
57 1
58 9
59 5
60 6
61 7
62 12
63 2
64 11
65 14
66 6
67 21
68 14
69 1
70 6
71 21
72 11
73 14
74 28
75 12
76 11
77 30
78 22
79 14
80 31
81 18
82 16
83 7
84 38
85 8
86 31
87 29
88 12
89 18

<precedence relations>
1,2
2,3
3,4
4,5
4,6
4,7
4,8
4,9
5,10
6,11
7,12
8,18
9,18
10,14
11,12
12,13
13,14
14,15
14,16
15,17
16,54
17,18
18,19
18,20
19,22
20,21
20,28
21,54
22,23
23,24
24,25
25,26
25,27
25,29
26,37
27,33
28,29
29,31
30,54
31,32
32,33
33,34
34,35
35,36
35,37
36,38
37,38
38,39
39,40
39,41
39,42
39,43
40,44
41,53
42,53
43,45
44,52
45,46
46,47
47,48
47,49
49,50
50,51
51,52
52,53
53,68
53,69
53,70
53,71
54,55
55,56
56,57
57,58
57,59
57,60
57,61
57,62
57,63
57,64
57,65
57,66
58,67
59,67
60,67
61,67
62,67
63,67
64,67
65,67
66,67
67,73
68,72
69,72
70,72
71,73
72,78
72,80
73,74
74,75
74,76
75,77
76,81
77,78
78,79
79,81
80,81
81,82
81,84
81,85
82,83
83,86
84,86
85,86
86,87
87,88
87,89

<setup times forward>
4,5:7
4,7:7
4,9:3
5,6:7
5,8:7
5,9:10
5,13:10
5,30:7
6,5:7
6,7:7
6,9:3
6,10:7
6,11:7
7,6:7
7,8:7
7,9:10
7,30:7
8,5:7
8,7:7
8,9:3
8,10:7
8,11:7
8,12:7
8,13:3
8,14:3
8,15:3
8,17:3
8,18:3
9,5:10
9,6:3
9,7:10
9,8:3
9,10:10
9,11:10
9,12:10
9,16:3
9,18:6
9,30:3
10,6:7
10,8:7
10,9:10
10,13:10
10,14:10
10,30:7
11,8:7
11,9:10
11,30:7
12,8:7
12,9:10
12,13:10
12,30:7
13,5:10
13,8:3
13,10:10
13,30:3
14,8:3
14,16:3
14,30:3
15,8:3
15,16:3
15,30:3
16,9:3
16,15:3
16,17:3
16,18:3
16,19:3
16,20:3
16,21:2
16,22:3
16,23:3
16,24:2
16,25:2
16,26:4
16,27:2
16,28:4
16,33:6
16,34:6
16,35:3
16,36:3
16,37:8
16,38:8
16,39:8
16,40:1
16,41:1
16,42:1
16,43:1
16,44:1
16,45:1
16,46:1
16,47:2
16,48:8
16,49:2
16,50:2
16,51:2
16,52:5
16,53:5
16,54:4
16,68:5
16,69:9
16,70:9
16,71:5
16,72:9
16,80:9
17,8:3
17,16:3
17,18:6
17,30:3
18,16:3
18,30:3
19,16:3
19,21:1
19,28:7
19,30:3
19,54:1
19,55:1
19,56:1
19,57:1
19,58:6
19,59:11
19,60:1
19,61:4
19,62:1
19,63:1
19,64:6
19,65:1
19,66:4
19,67:2
20,16:3
20,21:1
20,24:1
20,25:1
20,26:7
20,27:1
20,28:7
20,30:3
21,16:2
21,19:1
21,22:1
21,23:1
21,26:6
21,28:6
21,29:2
21,30:2
21,31:2
21,32:2
21,33:8
21,34:8
21,35:5
21,36:5
21,37:10
21,38:10
21,39:10
21,40:3
21,41:3
21,42:3
21,43:3
21,44:3
21,45:3
21,46:3
21,48:10
21,52:3
21,53:3
21,54:2
21,68:3
21,69:11
21,70:11
21,71:3
21,72:11
21,80:11
22,16:3
22,21:1
22,28:7
22,30:3
22,54:1
22,55:1
22,56:1
22,57:1
22,58:6
22,59:11
22,60:1
22,61:4
22,62:1
22,63:1
22,64:6
22,65:1
22,66:4
22,67:2
23,16:3
23,21:1
23,24:1
23,28:7
23,30:3
23,54:1
23,55:1
23,56:1
23,57:1
23,58:6
23,59:11
23,60:1
23,61:4
23,62:1
23,63:1
23,64:6
23,65:1
23,66:4
23,67:2
24,16:2
24,20:1
24,28:6
24,30:2
24,54:2
24,55:2
24,56:2
24,57:2
24,58:5
24,59:10
24,61:3
24,62:2
24,63:2
24,64:5
24,65:2
24,66:3
24,67:3
25,16:2
25,20:1
25,26:6
25,28:6
25,29:2
25,30:2
25,54:2
25,55:2
25,56:2
25,57:2
25,58:5
25,59:10
25,61:3
25,62:2
25,63:2
25,64:5
25,65:2
25,66:3
25,67:3
26,16:4
26,20:7
26,21:6
26,27:6
26,29:4
26,30:4
26,31:4
26,32:4
26,33:2
26,34:2
26,35:1
26,36:1
26,37:4
26,54:8
26,55:8
26,56:8
26,57:8
26,58:1
26,59:4
26,60:6
26,61:3
26,62:8
26,63:8
26,64:1
26,65:8
26,66:3
26,67:9
27,16:2
27,20:1
27,26:6
27,28:6
27,29:2
27,30:2
27,31:2
27,32:2
27,33:8
27,54:2
27,55:2
27,56:2
27,57:2
27,58:5
27,59:10
27,61:3
27,62:2
27,63:2
27,64:5
27,65:2
27,66:3
27,67:3
28,16:4
28,19:7
28,21:6
28,22:7
28,23:7
28,24:6
28,25:6
28,27:6
28,29:4
28,30:4
28,54:8
28,55:8
28,56:8
28,57:8
28,58:1
28,59:4
28,60:6
28,61:3
28,62:8
28,63:8
28,64:1
28,65:8
28,66:3
28,67:9
29,21:2
29,26:4
29,27:2
29,54:4
29,55:4
29,56:4
29,57:4
29,58:3
29,59:8
29,60:2
29,61:1
29,62:4
29,63:4
29,64:3
29,65:4
29,66:1
29,67:5
30,5:7
30,7:7
30,9:3
30,10:7
30,11:7
30,12:7
30,13:3
30,14:3
30,15:3
30,17:3
30,18:3
30,19:3
30,20:3
30,21:2
30,22:3
30,23:3
30,24:2
30,25:2
30,26:4
30,27:2
30,28:4
30,33:6
30,34:6
30,35:3
30,36:3
30,37:8
30,38:8
30,39:8
30,40:1
30,41:1
30,42:1
30,43:1
30,44:1
30,45:1
30,46:1
30,47:2
30,48:8
30,49:2
30,50:2
30,51:2
30,52:5
30,53:5
30,54:4
30,68:5
30,69:9
30,70:9
30,71:5
30,72:9
30,80:9
31,21:2
31,26:4
31,27:2
31,54:4
31,55:4
31,56:4
31,57:4
31,58:3
31,59:8
31,60:2
31,61:1
31,62:4
31,63:4
31,64:3
31,65:4
31,66:1
31,67:5
32,21:2
32,26:4
32,27:2
32,33:6
32,54:4
32,55:4
32,56:4
32,57:4
32,58:3
32,59:8
32,60:2
32,61:1
32,62:4
32,63:4
32,64:3
32,65:4
32,66:1
32,67:5
33,16:6
33,21:8
33,26:2
33,30:6
33,54:10
33,55:10
33,56:10
33,57:10
33,58:3
33,59:2
33,60:8
33,61:5
33,62:10
33,63:10
33,64:3
33,65:10
33,66:5
33,67:11
34,16:6
34,21:8
34,26:2
34,30:6
34,35:3
34,54:10
34,55:10
34,56:10
34,57:10
34,58:3
34,59:2
34,60:8
34,61:5
34,62:10
34,63:10
34,64:3
34,65:10
34,66:5
34,67:11
35,16:3
35,21:5
35,26:1
35,30:3
35,37:5
35,54:7
35,55:7
35,56:7
35,57:7
35,59:5
35,60:5
35,61:2
35,62:7
35,63:7
35,65:7
35,66:2
35,67:8
36,16:3
36,21:5
36,26:1
36,30:3
36,37:5
36,38:5
36,54:7
36,55:7
36,56:7
36,57:7
36,59:5
36,60:5
36,61:2
36,62:7
36,63:7
36,65:7
36,66:2
36,67:8
37,16:8
37,21:10
37,30:8
37,36:5
37,54:12
37,55:12
37,56:12
37,57:12
37,58:5
37,60:10
37,61:7
37,62:12
37,63:12
37,64:5
37,65:12
37,66:7
37,67:13
38,16:8
38,21:10
38,30:8
38,54:12
38,55:12
38,56:12
38,57:12
38,58:5
38,60:10
38,61:7
38,62:12
38,63:12
38,64:5
38,65:12
38,66:7
38,67:13
39,16:8
39,21:10
39,30:8
39,40:7
39,41:7
39,42:7
39,43:7
39,54:12
39,55:12
39,56:12
39,57:12
39,58:5
39,60:10
39,61:7
39,62:12
39,63:12
39,64:5
39,65:12
39,66:7
39,67:13
40,16:1
40,21:3
40,30:1
40,47:3
40,48:7
40,49:3
40,50:3
40,51:3
40,54:5
40,55:5
40,56:5
40,57:5
40,58:2
40,59:7
40,60:3
40,62:5
40,63:5
40,64:2
40,65:5
40,67:6
41,16:1
41,21:3
41,30:1
41,47:3
41,48:7
41,49:3
41,50:3
41,51:3
41,52:6
41,53:6
41,54:5
41,55:5
41,56:5
41,57:5
41,58:2
41,59:7
41,60:3
41,62:5
41,63:5
41,64:2
41,65:5
41,67:6
42,16:1
42,21:3
42,30:1
42,47:3
42,48:7
42,49:3
42,50:3
42,51:3
42,52:6
42,53:6
42,54:5
42,55:5
42,56:5
42,57:5
42,58:2
42,59:7
42,60:3
42,62:5
42,63:5
42,64:2
42,65:5
42,67:6
43,16:1
43,21:3
43,30:1
43,54:5
43,55:5
43,56:5
43,57:5
43,58:2
43,59:7
43,60:3
43,62:5
43,63:5
43,64:2
43,65:5
43,67:6
44,16:1
44,21:3
44,30:1
44,47:3
44,48:7
44,49:3
44,50:3
44,51:3
44,52:6
44,54:5
44,55:5
44,56:5
44,57:5
44,58:2
44,59:7
44,60:3
44,62:5
44,63:5
44,64:2
44,65:5
44,67:6
45,16:1
45,21:3
45,30:1
45,54:5
45,55:5
45,56:5
45,57:5
45,58:2
45,59:7
45,60:3
45,62:5
45,63:5
45,64:2
45,65:5
45,67:6
46,16:1
46,21:3
46,30:1
46,47:3
46,54:5
46,55:5
46,56:5
46,57:5
46,58:2
46,59:7
46,60:3
46,62:5
46,63:5
46,64:2
46,65:5
46,67:6
47,16:2
47,30:2
47,40:3
47,41:3
47,42:3
47,44:3
47,48:10
47,54:2
47,55:2
47,56:2
47,57:2
47,58:5
47,59:10
47,61:3
47,62:2
47,63:2
47,64:5
47,65:2
47,66:3
47,67:3
48,16:8
48,21:10
48,30:8
48,40:7
48,41:7
48,42:7
48,44:7
48,49:10
48,50:10
48,51:10
48,52:13
48,53:13
48,54:12
48,55:12
48,56:12
48,57:12
48,58:5
48,60:10
48,61:7
48,62:12
48,63:12
48,64:5
48,65:12
48,66:7
48,67:13
48,68:13
48,69:1
48,70:1
48,71:13
48,72:1
48,73:1
48,74:1
48,79:15
48,80:1
48,81:15
48,82:15
48,83:6
48,84:15
48,85:15
48,86:6
48,87:6
48,88:6
48,89:6
49,16:2
49,30:2
49,40:3
49,41:3
49,42:3
49,44:3
49,48:10
49,54:2
49,55:2
49,56:2
49,57:2
49,58:5
49,59:10
49,61:3
49,62:2
49,63:2
49,64:5
49,65:2
49,66:3
49,67:3
50,16:2
50,30:2
50,40:3
50,41:3
50,42:3
50,44:3
50,48:10
50,54:2
50,55:2
50,56:2
50,57:2
50,58:5
50,59:10
50,61:3
50,62:2
50,63:2
50,64:5
50,65:2
50,66:3
50,67:3
51,16:2
51,30:2
51,40:3
51,41:3
51,42:3
51,44:3
51,48:10
51,52:3
51,54:2
51,55:2
51,56:2
51,57:2
51,58:5
51,59:10
51,61:3
51,62:2
51,63:2
51,64:5
51,65:2
51,66:3
51,67:3
52,16:5
52,21:3
52,30:5
52,41:6
52,42:6
52,48:13
52,54:1
52,55:1
52,56:1
52,57:1
52,58:8
52,59:13
52,60:3
52,61:6
52,62:1
52,63:1
52,64:8
52,65:1
52,66:6
53,16:5
53,21:3
53,30:5
53,48:13
53,54:1
53,55:1
53,56:1
53,57:1
53,58:8
53,59:13
53,60:3
53,61:6
53,62:1
53,63:1
53,64:8
53,65:1
53,66:6
53,69:14
53,70:14
54,19:1
54,22:1
54,23:1
54,24:2
54,25:2
54,26:8
54,27:2
54,28:8
54,29:4
54,31:4
54,32:4
54,33:10
54,34:10
54,35:7
54,36:7
54,37:12
54,38:12
54,39:12
54,40:5
54,41:5
54,42:5
54,43:5
54,44:5
54,45:5
54,46:5
54,47:2
54,48:12
54,49:2
54,50:2
54,51:2
54,52:1
54,53:1
54,68:1
54,69:13
54,70:13
54,71:1
54,72:13
54,80:13
55,19:1
55,22:1
55,23:1
55,24:2
55,25:2
55,26:8
55,27:2
55,28:8
55,29:4
55,31:4
55,32:4
55,33:10
55,34:10
55,35:7
55,36:7
55,37:12
55,38:12
55,39:12
55,40:5
55,41:5
55,42:5
55,43:5
55,44:5
55,45:5
55,46:5
55,47:2
55,48:12
55,49:2
55,50:2
55,51:2
55,52:1
55,53:1
55,68:1
55,69:13
55,70:13
55,71:1
55,72:13
55,80:13
56,19:1
56,22:1
56,23:1
56,24:2
56,25:2
56,26:8
56,27:2
56,28:8
56,29:4
56,31:4
56,32:4
56,33:10
56,34:10
56,35:7
56,36:7
56,37:12
56,38:12
56,39:12
56,40:5
56,41:5
56,42:5
56,43:5
56,44:5
56,45:5
56,46:5
56,47:2
56,48:12
56,49:2
56,50:2
56,51:2
56,52:1
56,53:1
56,68:1
56,69:13
56,70:13
56,71:1
56,72:13
56,80:13
57,19:1
57,22:1
57,23:1
57,24:2
57,25:2
57,26:8
57,27:2
57,28:8
57,29:4
57,31:4
57,32:4
57,33:10
57,34:10
57,35:7
57,36:7
57,37:12
57,38:12
57,39:12
57,40:5
57,41:5
57,42:5
57,43:5
57,44:5
57,45:5
57,46:5
57,47:2
57,48:12
57,49:2
57,50:2
57,51:2
57,52:1
57,53:1
57,58:7
57,59:12
57,60:2
57,61:5
57,64:7
57,66:5
57,68:1
57,69:13
57,70:13
57,71:1
57,72:13
57,80:13
58,19:6
58,22:6
58,23:6
58,24:5
58,25:5
58,26:1
58,27:5
58,28:1
58,29:3
58,31:3
58,32:3
58,33:3
58,34:3
58,37:5
58,38:5
58,39:5
58,40:2
58,41:2
58,42:2
58,43:2
58,44:2
58,45:2
58,46:2
58,47:5
58,48:5
58,49:5
58,50:5
58,51:5
58,52:8
58,53:8
58,59:5
58,60:5
58,61:2
58,62:7
58,63:7
58,65:7
58,66:2
58,67:8
58,68:8
58,69:6
58,70:6
58,71:8
58,72:6
58,80:6
59,19:11
59,22:11
59,23:11
59,24:10
59,25:10
59,26:4
59,27:10
59,28:4
59,29:8
59,31:8
59,32:8
59,33:2
59,34:2
59,35:5
59,36:5
59,40:7
59,41:7
59,42:7
59,43:7
59,44:7
59,45:7
59,46:7
59,47:10
59,49:10
59,50:10
59,51:10
59,52:13
59,53:13
59,58:5
59,60:10
59,61:7
59,62:12
59,63:12
59,64:5
59,65:12
59,66:7
59,67:13
59,68:13
59,69:1
59,70:1
59,71:13
59,72:1
59,80:1
60,19:1
60,22:1
60,23:1
60,26:6
60,28:6
60,29:2
60,31:2
60,32:2
60,33:8
60,34:8
60,35:5
60,36:5
60,37:10
60,38:10
60,39:10
60,40:3
60,41:3
60,42:3
60,43:3
60,44:3
60,45:3
60,46:3
60,48:10
60,52:3
60,53:3
60,58:5
60,59:10
60,61:3
60,62:2
60,63:2
60,64:5
60,65:2
60,66:3
60,67:3
60,68:3
60,69:11
60,70:11
60,71:3
60,72:11
60,80:11
61,19:4
61,22:4
61,23:4
61,24:3
61,25:3
61,26:3
61,27:3
61,28:3
61,29:1
61,31:1
61,32:1
61,33:5
61,34:5
61,35:2
61,36:2
61,37:7
61,38:7
61,39:7
61,47:3
61,48:7
61,49:3
61,50:3
61,51:3
61,52:6
61,53:6
61,58:2
61,59:7
61,60:3
61,62:5
61,63:5
61,64:2
61,65:5
61,67:6
61,68:6
61,69:8
61,70:8
61,71:6
61,72:8
61,80:8
62,19:1
62,22:1
62,23:1
62,24:2
62,25:2
62,26:8
62,27:2
62,28:8
62,29:4
62,31:4
62,32:4
62,33:10
62,34:10
62,35:7
62,36:7
62,37:12
62,38:12
62,39:12
62,40:5
62,41:5
62,42:5
62,43:5
62,44:5
62,45:5
62,46:5
62,47:2
62,48:12
62,49:2
62,50:2
62,51:2
62,52:1
62,53:1
62,58:7
62,59:12
62,60:2
62,61:5
62,64:7
62,66:5
62,67:1
62,68:1
62,69:13
62,70:13
62,71:1
62,72:13
62,80:13
63,19:1
63,22:1
63,23:1
63,24:2
63,25:2
63,26:8
63,27:2
63,28:8
63,29:4
63,31:4
63,32:4
63,33:10
63,34:10
63,35:7
63,36:7
63,37:12
63,38:12
63,39:12
63,40:5
63,41:5
63,42:5
63,43:5
63,44:5
63,45:5
63,46:5
63,47:2
63,48:12
63,49:2
63,50:2
63,51:2
63,52:1
63,53:1
63,58:7
63,59:12
63,60:2
63,61:5
63,64:7
63,66:5
63,67:1
63,68:1
63,69:13
63,70:13
63,71:1
63,72:13
63,80:13
64,19:6
64,22:6
64,23:6
64,24:5
64,25:5
64,26:1
64,27:5
64,28:1
64,29:3
64,31:3
64,32:3
64,33:3
64,34:3
64,37:5
64,38:5
64,39:5
64,40:2
64,41:2
64,42:2
64,43:2
64,44:2
64,45:2
64,46:2
64,47:5
64,48:5
64,49:5
64,50:5
64,51:5
64,52:8
64,53:8
64,59:5
64,60:5
64,61:2
64,62:7
64,63:7
64,65:7
64,66:2
64,67:8
64,68:8
64,69:6
64,70:6
64,71:8
64,72:6
64,80:6
65,19:1
65,22:1
65,23:1
65,24:2
65,25:2
65,26:8
65,27:2
65,28:8
65,29:4
65,31:4
65,32:4
65,33:10
65,34:10
65,35:7
65,36:7
65,37:12
65,38:12
65,39:12
65,40:5
65,41:5
65,42:5
65,43:5
65,44:5
65,45:5
65,46:5
65,47:2
65,48:12
65,49:2
65,50:2
65,51:2
65,52:1
65,53:1
65,58:7
65,59:12
65,60:2
65,61:5
65,64:7
65,66:5
65,67:1
65,68:1
65,69:13
65,70:13
65,71:1
65,72:13
65,80:13
66,19:4
66,22:4
66,23:4
66,24:3
66,25:3
66,26:3
66,27:3
66,28:3
66,29:1
66,31:1
66,32:1
66,33:5
66,34:5
66,35:2
66,36:2
66,37:7
66,38:7
66,39:7
66,47:3
66,48:7
66,49:3
66,50:3
66,51:3
66,52:6
66,53:6
66,58:2
66,59:7
66,60:3
66,62:5
66,63:5
66,64:2
66,65:5
66,67:6
66,68:6
66,69:8
66,70:8
66,71:6
66,72:8
66,80:8
67,19:2
67,22:2
67,23:2
67,24:3
67,25:3
67,26:9
67,27:3
67,28:9
67,29:5
67,31:5
67,32:5
67,33:11
67,34:11
67,35:8
67,36:8
67,37:13
67,38:13
67,39:13
67,40:6
67,41:6
67,42:6
67,43:6
67,44:6
67,45:6
67,46:6
67,47:3
67,48:13
67,49:3
67,50:3
67,51:3
67,69:14
67,70:14
67,72:14
67,73:14
67,80:14
68,16:5
68,21:3
68,30:5
68,48:13
68,54:1
68,55:1
68,56:1
68,57:1
68,58:8
68,59:13
68,60:3
68,61:6
68,62:1
68,63:1
68,64:8
68,65:1
68,66:6
68,69:14
68,70:14
68,72:14
68,73:14
68,74:14
68,75:13
68,76:13
68,77:13
69,16:9
69,21:11
69,30:9
69,48:1
69,54:13
69,55:13
69,56:13
69,57:13
69,58:6
69,59:1
69,60:11
69,61:8
69,62:13
69,63:13
69,64:6
69,65:13
69,66:8
69,67:14
69,68:14
69,71:14
69,75:1
69,76:1
69,77:1
70,16:9
70,21:11
70,30:9
70,48:1
70,54:13
70,55:13
70,56:13
70,57:13
70,58:6
70,59:1
70,60:11
70,61:8
70,62:13
70,63:13
70,64:6
70,65:13
70,66:8
70,67:14
70,68:14
70,71:14
70,75:1
70,76:1
70,77:1
71,16:5
71,21:3
71,30:5
71,48:13
71,54:1
71,55:1
71,56:1
71,57:1
71,58:8
71,59:13
71,60:3
71,61:6
71,62:1
71,63:1
71,64:8
71,65:1
71,66:6
71,69:14
71,70:14
71,72:14
71,73:14
71,80:14
72,16:9
72,21:11
72,30:9
72,48:1
72,54:13
72,55:13
72,56:13
72,57:13
72,58:6
72,59:1
72,60:11
72,61:8
72,62:13
72,63:13
72,64:6
72,65:13
72,66:8
72,67:14
72,71:14
72,75:1
72,76:1
72,77:1
72,78:1
73,48:1
73,68:14
74,48:1
74,68:14
74,75:1
74,76:1
75,68:13
75,69:1
75,70:1
75,72:1
75,80:1
76,68:13
76,69:1
76,70:1
76,72:1
76,79:15
76,80:1
76,81:15
77,68:13
77,69:1
77,70:1
77,72:1
77,80:1
78,79:15
78,80:1
79,48:15
79,76:15
79,80:16
80,16:9
80,21:11
80,30:9
80,48:1
80,54:13
80,55:13
80,56:13
80,57:13
80,58:6
80,59:1
80,60:11
80,61:8
80,62:13
80,63:13
80,64:6
80,65:13
80,66:8
80,67:14
80,71:14
80,75:1
80,76:1
80,77:1
80,78:1
80,79:16
80,81:16
81,48:15
82,48:15
82,83:9
83,48:6
83,84:9
83,85:9
84,48:15
84,83:9
84,86:9
85,48:15
85,83:9
85,86:9
86,48:6
87,48:6
88,48:6
89,48:6

<setup times backward>
5,1:7
5,2:7
5,3:7
5,4:7
5,6:7
5,8:7
5,9:10
5,13:10
5,30:7
6,9:3
7,1:7
7,2:7
7,3:7
7,4:7
7,6:7
7,8:7
7,9:10
7,30:7
8,9:3
8,13:3
8,14:3
8,15:3
8,17:3
10,1:7
10,2:7
10,3:7
10,4:7
10,6:7
10,8:7
10,9:10
10,13:10
10,30:7
11,1:7
11,2:7
11,3:7
11,4:7
11,6:7
11,8:7
11,9:10
11,30:7
12,1:7
12,2:7
12,3:7
12,4:7
12,6:7
12,8:7
12,9:10
12,30:7
16,9:3
16,13:3
16,14:3
16,15:3
16,17:3
16,26:4
16,28:4
16,33:6
16,34:6
16,35:3
16,36:3
16,37:8
16,38:8
16,39:8
16,40:1
16,41:1
16,42:1
16,43:1
16,44:1
16,45:1
16,46:1
16,48:8
16,69:9
16,70:9
16,72:9
16,80:9
18,1:3
18,2:3
18,3:3
18,4:3
18,6:3
18,8:3
18,9:6
18,13:6
18,14:6
18,15:6
18,16:3
18,17:6
18,30:3
19,1:3
19,2:3
19,3:3
19,4:3
19,6:3
19,8:3
19,9:6
19,13:6
19,14:6
19,15:6
19,16:3
19,17:6
19,21:1
19,28:7
19,30:3
19,58:6
19,59:11
19,60:1
19,61:4
19,64:6
19,66:4
20,1:3
20,2:3
20,3:3
20,4:3
20,6:3
20,8:3
20,9:6
20,13:6
20,14:6
20,15:6
20,16:3
20,17:6
20,24:1
20,25:1
20,26:7
20,27:1
20,30:3
21,1:2
21,2:2
21,3:2
21,4:2
21,6:2
21,8:2
21,9:5
21,13:5
21,14:5
21,15:5
21,16:2
21,17:5
21,26:6
21,28:6
21,29:2
21,30:2
21,31:2
21,32:2
21,33:8
21,34:8
21,35:5
21,36:5
21,37:10
21,38:10
21,39:10
21,40:3
21,41:3
21,42:3
21,43:3
21,44:3
21,45:3
21,46:3
21,48:10
21,69:11
21,70:11
21,72:11
21,80:11
22,1:3
22,2:3
22,3:3
22,4:3
22,6:3
22,8:3
22,9:6
22,13:6
22,14:6
22,15:6
22,16:3
22,17:6
22,21:1
22,28:7
22,30:3
22,58:6
22,59:11
22,60:1
22,61:4
22,64:6
22,66:4
23,1:3
23,2:3
23,3:3
23,4:3
23,6:3
23,8:3
23,9:6
23,13:6
23,14:6
23,15:6
23,16:3
23,17:6
23,21:1
23,28:7
23,30:3
23,58:6
23,59:11
23,60:1
23,61:4
23,64:6
23,66:4
24,1:2
24,2:2
24,3:2
24,4:2
24,6:2
24,8:2
24,9:5
24,13:5
24,14:5
24,15:5
24,16:2
24,17:5
24,28:6
24,30:2
24,58:5
24,59:10
24,61:3
24,64:5
24,66:3
25,1:2
25,2:2
25,3:2
25,4:2
25,6:2
25,8:2
25,9:5
25,13:5
25,14:5
25,15:5
25,16:2
25,17:5
25,28:6
25,30:2
25,58:5
25,59:10
25,61:3
25,64:5
25,66:3
26,33:2
26,34:2
26,59:4
27,1:2
27,2:2
27,3:2
27,4:2
27,6:2
27,8:2
27,9:5
27,13:5
27,14:5
27,15:5
27,16:2
27,17:5
27,26:6
27,28:6
27,29:2
27,30:2
27,31:2
27,32:2
27,58:5
27,59:10
27,61:3
27,64:5
27,66:3
28,59:4
29,9:3
29,13:3
29,14:3
29,15:3
29,17:3
29,26:4
29,28:4
29,58:3
29,59:8
29,61:1
29,64:3
29,66:1
30,9:3
30,13:3
30,14:3
30,15:3
30,17:3
30,26:4
30,28:4
30,33:6
30,34:6
30,35:3
30,36:3
30,37:8
30,38:8
30,39:8
30,40:1
30,41:1
30,42:1
30,43:1
30,44:1
30,45:1
30,46:1
30,48:8
30,69:9
30,70:9
30,72:9
30,80:9
31,9:3
31,13:3
31,14:3
31,15:3
31,17:3
31,26:4
31,28:4
31,58:3
31,59:8
31,61:1
31,64:3
31,66:1
32,9:3
32,13:3
32,14:3
32,15:3
32,17:3
32,26:4
32,28:4
32,58:3
32,59:8
32,61:1
32,64:3
32,66:1
33,59:2
34,59:2
35,26:1
35,28:1
35,33:3
35,34:3
35,59:5
36,26:1
36,28:1
36,33:3
36,34:3
36,37:5
36,59:5
40,9:2
40,13:2
40,14:2
40,15:2
40,17:2
40,26:3
40,28:3
40,33:5
40,34:5
40,35:2
40,36:2
40,37:7
40,38:7
40,39:7
40,48:7
40,58:2
40,59:7
40,64:2
41,9:2
41,13:2
41,14:2
41,15:2
41,17:2
41,26:3
41,28:3
41,33:5
41,34:5
41,35:2
41,36:2
41,37:7
41,38:7
41,39:7
41,48:7
41,58:2
41,59:7
41,64:2
42,9:2
42,13:2
42,14:2
42,15:2
42,17:2
42,26:3
42,28:3
42,33:5
42,34:5
42,35:2
42,36:2
42,37:7
42,38:7
42,39:7
42,48:7
42,58:2
42,59:7
42,64:2
43,9:2
43,13:2
43,14:2
43,15:2
43,17:2
43,26:3
43,28:3
43,33:5
43,34:5
43,35:2
43,36:2
43,37:7
43,38:7
43,39:7
43,58:2
43,59:7
43,64:2
44,9:2
44,13:2
44,14:2
44,15:2
44,17:2
44,26:3
44,28:3
44,33:5
44,34:5
44,35:2
44,36:2
44,37:7
44,38:7
44,39:7
44,48:7
44,58:2
44,59:7
44,64:2
45,9:2
45,13:2
45,14:2
45,15:2
45,17:2
45,26:3
45,28:3
45,33:5
45,34:5
45,35:2
45,36:2
45,37:7
45,38:7
45,39:7
45,58:2
45,59:7
45,64:2
46,9:2
46,13:2
46,14:2
46,15:2
46,17:2
46,26:3
46,28:3
46,33:5
46,34:5
46,35:2
46,36:2
46,37:7
46,38:7
46,39:7
46,58:2
46,59:7
46,64:2
47,1:2
47,2:2
47,3:2
47,4:2
47,6:2
47,8:2
47,9:5
47,13:5
47,14:5
47,15:5
47,16:2
47,17:5
47,26:6
47,28:6
47,29:2
47,30:2
47,31:2
47,32:2
47,33:8
47,34:8
47,35:5
47,36:5
47,37:10
47,38:10
47,39:10
47,40:3
47,41:3
47,42:3
47,43:3
47,44:3
47,45:3
47,46:3
47,58:5
47,59:10
47,61:3
47,64:5
47,66:3
48,69:1
48,70:1
48,72:1
48,73:1
48,74:1
48,80:1
49,1:2
49,2:2
49,3:2
49,4:2
49,6:2
49,8:2
49,9:5
49,13:5
49,14:5
49,15:5
49,16:2
49,17:5
49,26:6
49,28:6
49,29:2
49,30:2
49,31:2
49,32:2
49,33:8
49,34:8
49,35:5
49,36:5
49,37:10
49,38:10
49,39:10
49,40:3
49,41:3
49,42:3
49,43:3
49,44:3
49,45:3
49,46:3
49,48:10
49,58:5
49,59:10
49,61:3
49,64:5
49,66:3
50,1:2
50,2:2
50,3:2
50,4:2
50,6:2
50,8:2
50,9:5
50,13:5
50,14:5
50,15:5
50,16:2
50,17:5
50,26:6
50,28:6
50,29:2
50,30:2
50,31:2
50,32:2
50,33:8
50,34:8
50,35:5
50,36:5
50,37:10
50,38:10
50,39:10
50,40:3
50,41:3
50,42:3
50,43:3
50,44:3
50,45:3
50,46:3
50,48:10
50,58:5
50,59:10
50,61:3
50,64:5
50,66:3
51,1:2
51,2:2
51,3:2
51,4:2
51,6:2
51,8:2
51,9:5
51,13:5
51,14:5
51,15:5
51,16:2
51,17:5
51,26:6
51,28:6
51,29:2
51,30:2
51,31:2
51,32:2
51,33:8
51,34:8
51,35:5
51,36:5
51,37:10
51,38:10
51,39:10
51,40:3
51,41:3
51,42:3
51,43:3
51,44:3
51,45:3
51,46:3
51,48:10
51,58:5
51,59:10
51,61:3
51,64:5
51,66:3
52,1:5
52,2:5
52,3:5
52,4:5
52,6:5
52,8:5
52,9:8
52,13:8
52,14:8
52,15:8
52,16:5
52,17:8
52,18:2
52,19:2
52,20:2
52,21:3
52,22:2
52,23:2
52,24:3
52,25:3
52,26:9
52,27:3
52,28:9
52,29:5
52,30:5
52,31:5
52,32:5
52,33:11
52,34:11
52,35:8
52,36:8
52,37:13
52,38:13
52,39:13
52,40:6
52,41:6
52,42:6
52,43:6
52,44:6
52,45:6
52,46:6
52,47:3
52,48:13
52,49:3
52,50:3
52,51:3
52,54:1
52,55:1
52,56:1
52,57:1
52,58:8
52,59:13
52,60:3
52,61:6
52,62:1
52,63:1
52,64:8
52,65:1
52,66:6
53,1:5
53,2:5
53,3:5
53,4:5
53,6:5
53,8:5
53,9:8
53,13:8
53,14:8
53,15:8
53,16:5
53,17:8
53,18:2
53,19:2
53,20:2
53,21:3
53,22:2
53,23:2
53,24:3
53,25:3
53,26:9
53,27:3
53,28:9
53,29:5
53,30:5
53,31:5
53,32:5
53,33:11
53,34:11
53,35:8
53,36:8
53,37:13
53,38:13
53,39:13
53,40:6
53,41:6
53,42:6
53,43:6
53,44:6
53,45:6
53,46:6
53,47:3
53,48:13
53,49:3
53,50:3
53,51:3
53,54:1
53,55:1
53,56:1
53,57:1
53,58:8
53,59:13
53,60:3
53,61:6
53,62:1
53,63:1
53,64:8
53,65:1
53,66:6
54,1:4
54,2:4
54,3:4
54,4:4
54,6:4
54,8:4
54,9:7
54,13:7
54,14:7
54,15:7
54,16:4
54,17:7
54,18:1
54,19:1
54,20:1
54,21:2
54,22:1
54,23:1
54,24:2
54,25:2
54,26:8
54,27:2
54,28:8
54,29:4
54,30:4
54,31:4
54,32:4
54,33:10
54,34:10
54,35:7
54,36:7
54,37:12
54,38:12
54,39:12
54,40:5
54,41:5
54,42:5
54,43:5
54,44:5
54,45:5
54,46:5
54,47:2
54,48:12
54,49:2
54,50:2
54,51:2
54,69:13
54,70:13
54,72:13
54,80:13
55,1:4
55,2:4
55,3:4
55,4:4
55,6:4
55,8:4
55,9:7
55,13:7
55,14:7
55,15:7
55,16:4
55,17:7
55,18:1
55,19:1
55,20:1
55,21:2
55,22:1
55,23:1
55,24:2
55,25:2
55,26:8
55,27:2
55,28:8
55,29:4
55,30:4
55,31:4
55,32:4
55,33:10
55,34:10
55,35:7
55,36:7
55,37:12
55,38:12
55,39:12
55,40:5
55,41:5
55,42:5
55,43:5
55,44:5
55,45:5
55,46:5
55,47:2
55,48:12
55,49:2
55,50:2
55,51:2
55,69:13
55,70:13
55,72:13
55,80:13
56,1:4
56,2:4
56,3:4
56,4:4
56,6:4
56,8:4
56,9:7
56,13:7
56,14:7
56,15:7
56,16:4
56,17:7
56,18:1
56,19:1
56,20:1
56,21:2
56,22:1
56,23:1
56,24:2
56,25:2
56,26:8
56,27:2
56,28:8
56,29:4
56,30:4
56,31:4
56,32:4
56,33:10
56,34:10
56,35:7
56,36:7
56,37:12
56,38:12
56,39:12
56,40:5
56,41:5
56,42:5
56,43:5
56,44:5
56,45:5
56,46:5
56,47:2
56,48:12
56,49:2
56,50:2
56,51:2
56,69:13
56,70:13
56,72:13
56,80:13
57,1:4
57,2:4
57,3:4
57,4:4
57,6:4
57,8:4
57,9:7
57,13:7
57,14:7
57,15:7
57,16:4
57,17:7
57,18:1
57,19:1
57,20:1
57,21:2
57,22:1
57,23:1
57,24:2
57,25:2
57,26:8
57,27:2
57,28:8
57,29:4
57,30:4
57,31:4
57,32:4
57,33:10
57,34:10
57,35:7
57,36:7
57,37:12
57,38:12
57,39:12
57,40:5
57,41:5
57,42:5
57,43:5
57,44:5
57,45:5
57,46:5
57,47:2
57,48:12
57,49:2
57,50:2
57,51:2
57,69:13
57,70:13
57,72:13
57,80:13
58,26:1
58,28:1
58,33:3
58,34:3
58,37:5
58,38:5
58,39:5
58,48:5
58,59:5
58,69:6
58,70:6
58,72:6
58,80:6
59,69:1
59,70:1
59,72:1
59,80:1
60,1:2
60,2:2
60,3:2
60,4:2
60,6:2
60,8:2
60,9:5
60,13:5
60,14:5
60,15:5
60,16:2
60,17:5
60,26:6
60,28:6
60,29:2
60,30:2
60,31:2
60,32:2
60,33:8
60,34:8
60,35:5
60,36:5
60,37:10
60,38:10
60,39:10
60,40:3
60,41:3
60,42:3
60,43:3
60,44:3
60,45:3
60,46:3
60,48:10
60,58:5
60,59:10
60,61:3
60,64:5
60,66:3
60,69:11
60,70:11
60,72:11
60,80:11
61,9:2
61,13:2
61,14:2
61,15:2
61,17:2
61,26:3
61,28:3
61,33:5
61,34:5
61,35:2
61,36:2
61,37:7
61,38:7
61,39:7
61,48:7
61,58:2
61,59:7
61,64:2
61,69:8
61,70:8
61,72:8
61,80:8
62,1:4
62,2:4
62,3:4
62,4:4
62,6:4
62,8:4
62,9:7
62,13:7
62,14:7
62,15:7
62,16:4
62,17:7
62,18:1
62,19:1
62,20:1
62,21:2
62,22:1
62,23:1
62,24:2
62,25:2
62,26:8
62,27:2
62,28:8
62,29:4
62,30:4
62,31:4
62,32:4
62,33:10
62,34:10
62,35:7
62,36:7
62,37:12
62,38:12
62,39:12
62,40:5
62,41:5
62,42:5
62,43:5
62,44:5
62,45:5
62,46:5
62,47:2
62,48:12
62,49:2
62,50:2
62,51:2
62,58:7
62,59:12
62,60:2
62,61:5
62,64:7
62,66:5
62,69:13
62,70:13
62,72:13
62,80:13
63,1:4
63,2:4
63,3:4
63,4:4
63,6:4
63,8:4
63,9:7
63,13:7
63,14:7
63,15:7
63,16:4
63,17:7
63,18:1
63,19:1
63,20:1
63,21:2
63,22:1
63,23:1
63,24:2
63,25:2
63,26:8
63,27:2
63,28:8
63,29:4
63,30:4
63,31:4
63,32:4
63,33:10
63,34:10
63,35:7
63,36:7
63,37:12
63,38:12
63,39:12
63,40:5
63,41:5
63,42:5
63,43:5
63,44:5
63,45:5
63,46:5
63,47:2
63,48:12
63,49:2
63,50:2
63,51:2
63,58:7
63,59:12
63,60:2
63,61:5
63,64:7
63,66:5
63,69:13
63,70:13
63,72:13
63,80:13
64,26:1
64,28:1
64,33:3
64,34:3
64,37:5
64,38:5
64,39:5
64,48:5
64,59:5
64,69:6
64,70:6
64,72:6
64,80:6
65,1:4
65,2:4
65,3:4
65,4:4
65,6:4
65,8:4
65,9:7
65,13:7
65,14:7
65,15:7
65,16:4
65,17:7
65,18:1
65,19:1
65,20:1
65,21:2
65,22:1
65,23:1
65,24:2
65,25:2
65,26:8
65,27:2
65,28:8
65,29:4
65,30:4
65,31:4
65,32:4
65,33:10
65,34:10
65,35:7
65,36:7
65,37:12
65,38:12
65,39:12
65,40:5
65,41:5
65,42:5
65,43:5
65,44:5
65,45:5
65,46:5
65,47:2
65,48:12
65,49:2
65,50:2
65,51:2
65,58:7
65,59:12
65,60:2
65,61:5
65,64:7
65,66:5
65,69:13
65,70:13
65,72:13
65,80:13
66,9:2
66,13:2
66,14:2
66,15:2
66,17:2
66,26:3
66,28:3
66,33:5
66,34:5
66,35:2
66,36:2
66,37:7
66,38:7
66,39:7
66,48:7
66,58:2
66,59:7
66,64:2
66,69:8
66,70:8
66,72:8
66,80:8
67,1:5
67,2:5
67,3:5
67,4:5
67,6:5
67,8:5
67,9:8
67,13:8
67,14:8
67,15:8
67,16:5
67,17:8
67,18:2
67,19:2
67,20:2
67,21:3
67,22:2
67,23:2
67,24:3
67,25:3
67,26:9
67,27:3
67,28:9
67,29:5
67,30:5
67,31:5
67,32:5
67,33:11
67,34:11
67,35:8
67,36:8
67,37:13
67,38:13
67,39:13
67,40:6
67,41:6
67,42:6
67,43:6
67,44:6
67,45:6
67,46:6
67,47:3
67,48:13
67,49:3
67,50:3
67,51:3
67,54:1
67,55:1
67,56:1
67,57:1
67,58:8
67,59:13
67,60:3
67,61:6
67,62:1
67,63:1
67,64:8
67,65:1
67,66:6
67,69:14
67,70:14
67,72:14
67,80:14
68,1:5
68,2:5
68,3:5
68,4:5
68,6:5
68,8:5
68,9:8
68,13:8
68,14:8
68,15:8
68,16:5
68,17:8
68,18:2
68,19:2
68,20:2
68,21:3
68,22:2
68,23:2
68,24:3
68,25:3
68,26:9
68,27:3
68,28:9
68,29:5
68,30:5
68,31:5
68,32:5
68,33:11
68,34:11
68,35:8
68,36:8
68,37:13
68,38:13
68,39:13
68,40:6
68,41:6
68,42:6
68,43:6
68,44:6
68,45:6
68,46:6
68,47:3
68,48:13
68,49:3
68,50:3
68,51:3
68,54:1
68,55:1
68,56:1
68,57:1
68,58:8
68,59:13
68,60:3
68,61:6
68,62:1
68,63:1
68,64:8
68,65:1
68,66:6
68,69:14
68,70:14
68,73:14
68,74:14
68,75:13
68,76:13
68,77:13
71,1:5
71,2:5
71,3:5
71,4:5
71,6:5
71,8:5
71,9:8
71,13:8
71,14:8
71,15:8
71,16:5
71,17:8
71,18:2
71,19:2
71,20:2
71,21:3
71,22:2
71,23:2
71,24:3
71,25:3
71,26:9
71,27:3
71,28:9
71,29:5
71,30:5
71,31:5
71,32:5
71,33:11
71,34:11
71,35:8
71,36:8
71,37:13
71,38:13
71,39:13
71,40:6
71,41:6
71,42:6
71,43:6
71,44:6
71,45:6
71,46:6
71,47:3
71,48:13
71,49:3
71,50:3
71,51:3
71,54:1
71,55:1
71,56:1
71,57:1
71,58:8
71,59:13
71,60:3
71,61:6
71,62:1
71,63:1
71,64:8
71,65:1
71,66:6
71,69:14
71,70:14
71,72:14
71,80:14
75,69:1
75,70:1
75,72:1
75,73:1
75,74:1
75,80:1
76,69:1
76,70:1
76,72:1
76,73:1
76,74:1
76,80:1
77,69:1
77,70:1
77,72:1
77,73:1
77,74:1
77,80:1
78,69:1
78,70:1
78,72:1
78,73:1
78,74:1
78,80:1
79,1:7
79,2:7
79,3:7
79,4:7
79,6:7
79,8:7
79,9:10
79,13:10
79,14:10
79,15:10
79,16:7
79,17:10
79,18:4
79,19:4
79,20:4
79,21:5
79,22:4
79,23:4
79,24:5
79,25:5
79,26:11
79,27:5
79,28:11
79,29:7
79,30:7
79,31:7
79,32:7
79,33:13
79,34:13
79,35:10
79,36:10
79,37:15
79,38:15
79,39:15
79,40:8
79,41:8
79,42:8
79,43:8
79,44:8
79,45:8
79,46:8
79,47:5
79,48:15
79,49:5
79,50:5
79,51:5
79,52:2
79,53:2
79,54:3
79,55:3
79,56:3
79,57:3
79,58:10
79,59:15
79,60:5
79,61:8
79,62:3
79,63:3
79,64:10
79,65:3
79,66:8
79,67:2
79,68:2
79,69:16
79,70:16
79,71:2
79,72:16
79,73:16
79,74:16
79,75:15
79,76:15
79,77:15
79,78:15
79,80:16
81,1:7
81,2:7
81,3:7
81,4:7
81,6:7
81,8:7
81,9:10
81,13:10
81,14:10
81,15:10
81,16:7
81,17:10
81,18:4
81,19:4
81,20:4
81,21:5
81,22:4
81,23:4
81,24:5
81,25:5
81,26:11
81,27:5
81,28:11
81,29:7
81,30:7
81,31:7
81,32:7
81,33:13
81,34:13
81,35:10
81,36:10
81,37:15
81,38:15
81,39:15
81,40:8
81,41:8
81,42:8
81,43:8
81,44:8
81,45:8
81,46:8
81,47:5
81,48:15
81,49:5
81,50:5
81,51:5
81,52:2
81,53:2
81,54:3
81,55:3
81,56:3
81,57:3
81,58:10
81,59:15
81,60:5
81,61:8
81,62:3
81,63:3
81,64:10
81,65:3
81,66:8
81,67:2
81,68:2
81,69:16
81,70:16
81,71:2
81,72:16
81,73:16
81,74:16
81,75:15
81,76:15
81,77:15
81,78:15
81,80:16
82,1:7
82,2:7
82,3:7
82,4:7
82,6:7
82,8:7
82,9:10
82,13:10
82,14:10
82,15:10
82,16:7
82,17:10
82,18:4
82,19:4
82,20:4
82,21:5
82,22:4
82,23:4
82,24:5
82,25:5
82,26:11
82,27:5
82,28:11
82,29:7
82,30:7
82,31:7
82,32:7
82,33:13
82,34:13
82,35:10
82,36:10
82,37:15
82,38:15
82,39:15
82,40:8
82,41:8
82,42:8
82,43:8
82,44:8
82,45:8
82,46:8
82,47:5
82,48:15
82,49:5
82,50:5
82,51:5
82,52:2
82,53:2
82,54:3
82,55:3
82,56:3
82,57:3
82,58:10
82,59:15
82,60:5
82,61:8
82,62:3
82,63:3
82,64:10
82,65:3
82,66:8
82,67:2
82,68:2
82,69:16
82,70:16
82,71:2
82,72:16
82,73:16
82,74:16
82,75:15
82,76:15
82,77:15
82,78:15
82,80:16
83,9:1
83,13:1
83,14:1
83,15:1
83,17:1
83,26:2
83,28:2
83,33:4
83,34:4
83,35:1
83,36:1
83,37:6
83,38:6
83,39:6
83,48:6
83,58:1
83,59:6
83,64:1
83,69:7
83,70:7
83,72:7
83,73:7
83,74:7
83,75:6
83,76:6
83,77:6
83,78:6
83,80:7
84,1:7
84,2:7
84,3:7
84,4:7
84,6:7
84,8:7
84,9:10
84,13:10
84,14:10
84,15:10
84,16:7
84,17:10
84,18:4
84,19:4
84,20:4
84,21:5
84,22:4
84,23:4
84,24:5
84,25:5
84,26:11
84,27:5
84,28:11
84,29:7
84,30:7
84,31:7
84,32:7
84,33:13
84,34:13
84,35:10
84,36:10
84,37:15
84,38:15
84,39:15
84,40:8
84,41:8
84,42:8
84,43:8
84,44:8
84,45:8
84,46:8
84,47:5
84,48:15
84,49:5
84,50:5
84,51:5
84,52:2
84,53:2
84,54:3
84,55:3
84,56:3
84,57:3
84,58:10
84,59:15
84,60:5
84,61:8
84,62:3
84,63:3
84,64:10
84,65:3
84,66:8
84,67:2
84,68:2
84,69:16
84,70:16
84,71:2
84,72:16
84,73:16
84,74:16
84,75:15
84,76:15
84,77:15
84,78:15
84,80:16
84,83:9
85,1:7
85,2:7
85,3:7
85,4:7
85,6:7
85,8:7
85,9:10
85,13:10
85,14:10
85,15:10
85,16:7
85,17:10
85,18:4
85,19:4
85,20:4
85,21:5
85,22:4
85,23:4
85,24:5
85,25:5
85,26:11
85,27:5
85,28:11
85,29:7
85,30:7
85,31:7
85,32:7
85,33:13
85,34:13
85,35:10
85,36:10
85,37:15
85,38:15
85,39:15
85,40:8
85,41:8
85,42:8
85,43:8
85,44:8
85,45:8
85,46:8
85,47:5
85,48:15
85,49:5
85,50:5
85,51:5
85,52:2
85,53:2
85,54:3
85,55:3
85,56:3
85,57:3
85,58:10
85,59:15
85,60:5
85,61:8
85,62:3
85,63:3
85,64:10
85,65:3
85,66:8
85,67:2
85,68:2
85,69:16
85,70:16
85,71:2
85,72:16
85,73:16
85,74:16
85,75:15
85,76:15
85,77:15
85,78:15
85,80:16
85,83:9
86,9:1
86,13:1
86,14:1
86,15:1
86,17:1
86,26:2
86,28:2
86,33:4
86,34:4
86,35:1
86,36:1
86,37:6
86,38:6
86,39:6
86,48:6
86,58:1
86,59:6
86,64:1
86,69:7
86,70:7
86,72:7
86,73:7
86,74:7
86,75:6
86,76:6
86,77:6
86,78:6
86,80:7
87,9:1
87,13:1
87,14:1
87,15:1
87,17:1
87,26:2
87,28:2
87,33:4
87,34:4
87,35:1
87,36:1
87,37:6
87,38:6
87,39:6
87,48:6
87,58:1
87,59:6
87,64:1
87,69:7
87,70:7
87,72:7
87,73:7
87,74:7
87,75:6
87,76:6
87,77:6
87,78:6
87,80:7
88,9:1
88,13:1
88,14:1
88,15:1
88,17:1
88,26:2
88,28:2
88,33:4
88,34:4
88,35:1
88,36:1
88,37:6
88,38:6
88,39:6
88,48:6
88,58:1
88,59:6
88,64:1
88,69:7
88,70:7
88,72:7
88,73:7
88,74:7
88,75:6
88,76:6
88,77:6
88,78:6
88,80:7
89,9:1
89,13:1
89,14:1
89,15:1
89,17:1
89,26:2
89,28:2
89,33:4
89,34:4
89,35:1
89,36:1
89,37:6
89,38:6
89,39:6
89,48:6
89,58:1
89,59:6
89,64:1
89,69:7
89,70:7
89,72:7
89,73:7
89,74:7
89,75:6
89,76:6
89,77:6
89,78:6
89,80:7

<end>

<optimal SALBP-1 value>
18


<rand seed>
467321153

